c Instancia generada aleatoriamente
p edge 40 195
e 1 14
e 1 22
e 1 26
e 1 29
e 2 6
e 2 11
e 2 18
e 2 19
e 2 24
e 2 25
e 2 26
e 2 27
e 2 36
e 2 37
e 2 39
e 2 40
e 3 6
e 3 11
e 3 12
e 3 14
e 3 19
e 3 23
e 3 25
e 3 31
e 3 40
e 4 5
e 4 6
e 4 8
e 4 10
e 4 13
e 4 18
e 4 26
e 4 30
e 4 31
e 4 35
e 5 8
e 5 12
e 5 15
e 5 19
e 5 21
e 5 22
e 5 23
e 5 24
e 5 30
e 5 31
e 5 33
e 5 38
e 6 7
e 6 13
e 6 15
e 6 23
e 6 28
e 6 29
e 6 34
e 6 35
e 6 37
e 7 13
e 7 25
e 7 26
e 7 28
e 7 29
e 7 31
e 8 10
e 8 12
e 8 13
e 8 15
e 8 17
e 8 20
e 8 29
e 8 35
e 8 36
e 8 37
e 9 11
e 9 17
e 9 23
e 9 26
e 9 35
e 9 38
e 9 40
e 10 11
e 10 12
e 10 22
e 10 24
e 10 32
e 10 33
e 10 38
e 10 40
e 11 15
e 11 19
e 11 20
e 11 23
e 11 28
e 11 34
e 11 39
e 11 40
e 12 14
e 12 19
e 12 20
e 12 21
e 12 24
e 12 26
e 12 31
e 12 33
e 12 39
e 12 40
e 13 14
e 13 15
e 13 21
e 13 25
e 13 28
e 13 33
e 13 34
e 13 40
e 14 17
e 14 19
e 14 29
e 14 31
e 14 35
e 14 36
e 15 17
e 15 22
e 15 23
e 15 24
e 15 30
e 15 36
e 16 21
e 16 24
e 16 27
e 17 23
e 17 25
e 17 26
e 17 31
e 17 38
e 17 40
e 18 19
e 18 22
e 18 28
e 18 30
e 18 31
e 18 32
e 18 33
e 18 40
e 19 23
e 19 24
e 19 32
e 19 34
e 19 37
e 19 40
e 20 23
e 20 27
e 20 30
e 20 33
e 20 34
e 20 36
e 20 40
e 21 25
e 21 27
e 21 28
e 21 32
e 21 38
e 22 26
e 22 31
e 22 35
e 22 37
e 23 28
e 23 31
e 23 32
e 23 39
e 24 30
e 24 36
e 24 37
e 24 39
e 25 32
e 25 39
e 26 27
e 26 37
e 26 40
e 27 28
e 27 30
e 27 34
e 27 36
e 28 38
e 28 39
e 29 33
e 29 37
e 30 33
e 30 35
e 31 37
e 31 38
e 31 39
e 32 38
e 33 38
e 34 35
e 34 40
e 36 40
